c nIsolatedPIs 16
c maxPI 16
p cnf 69 160
c gate 17 -2 -10 0
-2 -17 0
-10 -17 0
2 10 17 0
c gate 18 1 9 0
1 -18 0
9 -18 0
-1 -9 18 0
c gate 19 -17 18 0
-17 -19 0
18 -19 0
17 -18 19 0
c gate 20 3 11 0
3 -20 0
11 -20 0
-3 -11 20 0
c gate 21 2 10 0
2 -21 0
10 -21 0
-2 -10 21 0
c gate 22 -20 -21 0
-20 -22 0
-21 -22 0
20 21 22 0
c gate 23 -19 22 0
-19 -23 0
22 -23 0
19 -22 23 0
c gate 24 -3 -11 0
-3 -24 0
-11 -24 0
3 11 24 0
c gate 25 -4 -12 0
-4 -25 0
-12 -25 0
4 12 25 0
c gate 26 -24 -25 0
-24 -26 0
-25 -26 0
24 25 26 0
c gate 27 -23 26 0
-23 -27 0
26 -27 0
23 -26 27 0
c gate 28 5 13 0
5 -28 0
13 -28 0
-5 -13 28 0
c gate 29 4 12 0
4 -29 0
12 -29 0
-4 -12 29 0
c gate 30 -28 -29 0
-28 -30 0
-29 -30 0
28 29 30 0
c gate 31 -27 30 0
-27 -31 0
30 -31 0
27 -30 31 0
c gate 32 -6 -14 0
-6 -32 0
-14 -32 0
6 14 32 0
c gate 33 -5 -13 0
-5 -33 0
-13 -33 0
5 13 33 0
c gate 34 -32 -33 0
-32 -34 0
-33 -34 0
32 33 34 0
c gate 35 -31 34 0
-31 -35 0
34 -35 0
31 -34 35 0
c gate 36 7 -15 0
7 -36 0
-15 -36 0
-7 15 36 0
c gate 37 -7 15 0
-7 -37 0
15 -37 0
7 -15 37 0
c gate 38 -36 -37 0
-36 -38 0
-37 -38 0
36 37 38 0
c gate 39 6 14 0
6 -39 0
14 -39 0
-6 -14 39 0
c gate 40 -38 -39 0
-38 -40 0
-39 -40 0
38 39 40 0
c gate 41 -35 40 0
-35 -41 0
40 -41 0
35 -40 41 0
c gate 42 -2 10 0
-2 -42 0
10 -42 0
2 -10 42 0
c gate 43 -1 9 0
-1 -43 0
9 -43 0
1 -9 43 0
c gate 44 -42 -43 0
-42 -44 0
-43 -44 0
42 43 44 0
c gate 45 3 -11 0
3 -45 0
-11 -45 0
-3 11 45 0
c gate 46 2 -10 0
2 -46 0
-10 -46 0
-2 10 46 0
c gate 47 -45 -46 0
-45 -47 0
-46 -47 0
45 46 47 0
c gate 48 -44 47 0
-44 -48 0
47 -48 0
44 -47 48 0
c gate 49 -4 12 0
-4 -49 0
12 -49 0
4 -12 49 0
c gate 50 -3 11 0
-3 -50 0
11 -50 0
3 -11 50 0
c gate 51 -49 -50 0
-49 -51 0
-50 -51 0
49 50 51 0
c gate 52 -48 51 0
-48 -52 0
51 -52 0
48 -51 52 0
c gate 53 4 -12 0
4 -53 0
-12 -53 0
-4 12 53 0
c gate 54 5 -13 0
5 -54 0
-13 -54 0
-5 13 54 0
c gate 55 -53 -54 0
-53 -55 0
-54 -55 0
53 54 55 0
c gate 56 -52 55 0
-52 -56 0
55 -56 0
52 -55 56 0
c gate 57 -6 14 0
-6 -57 0
14 -57 0
6 -14 57 0
c gate 58 -5 13 0
-5 -58 0
13 -58 0
5 -13 58 0
c gate 59 -57 -58 0
-57 -59 0
-58 -59 0
57 58 59 0
c gate 60 -56 59 0
-56 -60 0
59 -60 0
56 -59 60 0
c gate 61 6 -14 0
6 -61 0
-14 -61 0
-6 14 61 0
c gate 62 -36 -61 0
-36 -62 0
-61 -62 0
36 61 62 0
c gate 63 -60 62 0
-60 -63 0
62 -63 0
60 -62 63 0
c gate 64 -8 16 0
-8 -64 0
16 -64 0
8 -16 64 0
c gate 65 8 -16 0
8 -65 0
-16 -65 0
-8 16 65 0
c gate 66 -37 -65 0
-37 -66 0
-65 -66 0
37 65 66 0
c gate 67 -64 66 0
-64 -67 0
66 -67 0
64 -66 67 0
c gate 68 -63 67 0
-63 -68 0
67 -68 0
63 -67 68 0
c gate 69 -41 -68 0
-41 -69 0
-68 -69 0
41 68 69 0
c PO
-69 0
